Maximize
  - 3.979653879832 edge_0_1_0_0 - 3.4021343184262 edge_0_3_0_0
   - 3.0552198166868 edge_0_5_0_0 - 1.3981962523272 edge_0_6_0_0
   - 3.85374 edge_0_8_0_0 - 2.1982579925656 edge_0_11_0_0
   - 3.29165177085 edge_0_13_0_0 - 3.727528460523 edge_0_16_0_0
   - 3.626185096318 edge_0_18_0_0 - 2.3744753487 edge_0_19_0_0
   - 1.8775090303268 edge_0_20_0_0 - 0.3687116767958715 edge_1_3_0_0
   + 0.3568245071844625 edge_1_6_0_0 + 0.407661116835798 edge_3_1_0_0
   + 4.328144182684745 edge_3_2_0_0 + 0.8358736352561342 edge_3_4_0_0
   + 3.43869896839 edge_3_5_0_0 + 1.506842721916548 edge_3_6_0_0
   + 0.4783289341976159 edge_3_7_0_0 + 1.472969558109 edge_3_8_0_0
   + 1.335915148618376 edge_3_9_0_0 + 1.174946639645335 edge_3_10_0_0
   + 0.2438499827370232 edge_3_11_0_0 - 0.0381166932729886 edge_3_13_0_0
   + 1.515395000601023 edge_3_14_0_0 + 1.191721360251885 edge_3_15_0_0
   + 0.0954223240783942 edge_3_16_0_0 + 0.3559228752810457 edge_3_18_0_0
   + 0.6305327751145071 edge_3_19_0_0 - 0.7123131643062691 edge_3_20_0_0
   + 2.380329285901 edge_3_21_0_0 - 0.0655568473324181 edge_4_3_0_0
   + 1.508089680147414 edge_4_5_0_0 + 0.2710351898296882 edge_4_6_0_0
   + 0.4374584304757395 edge_4_7_0_0 + 0.4247438494235333 edge_4_8_0_0
   + 0.0632284658336441 edge_4_10_0_0 - 0.465580772300152 edge_5_1_0_0
   + 1.080084048415553 edge_5_2_0_0 + 0.3742613525267776 edge_5_3_0_0
   + 3.285958112602501 edge_5_4_0_0 + 0.5089836942934201 edge_5_6_0_0
   + 0.5734209502263009 edge_5_7_0_0 + 1.627699609352018 edge_5_8_0_0
   + 1.477028355608293 edge_5_9_0_0 + 1.689567888037621 edge_5_10_0_0
   + 0.14707805619233 edge_5_11_0_0 + 0.3312472034727467 edge_5_13_0_0
   + 1.320069740770011 edge_5_14_0_0 - 0.074702789431732 edge_5_15_0_0
   - 0.8014199689467 edge_5_16_0_0 + 0.4791112573764428 edge_5_18_0_0
   + 0.5516537289003743 edge_5_19_0_0 - 0.8539515787370401 edge_5_20_0_0
   + 0.653282 edge_5_21_0_0 + 2.703176526847916 edge_6_1_0_0
   + 1.333570041162445 edge_6_2_0_0 + 3.580208764402179 edge_6_3_0_0
   + 1.453276283533094 edge_6_4_0_0 + 3.114735825243839 edge_6_5_0_0
   + 1.91800783989518 edge_6_7_0_0 + 2.6890678184676 edge_6_8_0_0
   + 1.974213827999946 edge_6_9_0_0 + 2.302494603007362 edge_6_10_0_0
   + 1.561890682559589 edge_6_11_0_0 + 0.1061843163530847 edge_6_12_0_0
   + 1.611352723116092 edge_6_13_0_0 + 2.326098222377017 edge_6_14_0_0
   + 3.856986729009269 edge_6_15_0_0 + 2.345385149020145 edge_6_16_0_0
   + 0.9747019834958806 edge_6_18_0_0 + 2.625496296061121 edge_6_19_0_0
   + 1.656855861751489 edge_6_20_0_0 + 3.893464758875563 edge_6_21_0_0
   + 0.0703875504374427 edge_7_5_0_0 + 0.95633292978114 edge_7_8_0_0
   - 0.0469739423117946 edge_7_9_0_0 + 0.7416791300619049 edge_7_10_0_0
   - 0.1538570692291899 edge_7_11_0_0 - 0.5796603766702654 edge_7_13_0_0
   - 0.6314698554440165 edge_7_15_0_0 - 1.134096343185518 edge_7_19_0_0
   - 1.194771854319028 edge_8_1_0_0 - 0.3615473311363087 edge_8_3_0_0
   + 0.6958134813185108 edge_8_4_0_0 + 0.479951 edge_8_5_0_0
   + 0.95137969023048 edge_8_6_0_0 + 3.2464672442109 edge_8_7_0_0
   + 1.8904190209408 edge_8_9_0_0 + 1.110468478656338 edge_8_10_0_0
   + 0.8657454478306 edge_8_11_0_0 + 0.031702027396356 edge_8_12_0_0
   + 1.04513738715 edge_8_13_0_0 + 0.9893124876159 edge_8_14_0_0
   + 0.77342375678022 edge_8_15_0_0 + 0.1706456891502 edge_8_16_0_0
   - 0.00786591686389901 edge_8_18_0_0 + 0.4481145107937735 edge_8_19_0_0
   - 0.2032796064852 edge_8_20_0_0 + 0.864341 edge_8_21_0_0
   - 0.0249029350155682 edge_9_11_0_0 - 1.987181252549496 edge_10_1_0_0
   + 0.0153659952517879 edge_10_2_0_0 - 1.516745662098014 edge_10_3_0_0
   + 0.2437891737388581 edge_10_4_0_0 - 1.185048518687585 edge_10_5_0_0
   - 1.649040495293875 edge_10_6_0_0 + 1.380793899292605 edge_10_7_0_0
   + 1.406608072944601 edge_10_8_0_0 + 1.032574338932674 edge_10_9_0_0
   + 1.073519365800835 edge_10_11_0_0 + 0.2276902002064193 edge_10_12_0_0
   + 1.603796527780261 edge_10_13_0_0 + 1.985778013067353 edge_10_14_0_0
   + 0.7294440450860135 edge_10_18_0_0 + 1.374670517488138 edge_10_19_0_0
   + 0.0896950617322815 edge_10_20_0_0 + 1.053548050933327 edge_10_21_0_0
   - 0.8511528174427591 edge_11_1_0_0 - 0.4588790886526421 edge_11_3_0_0
   - 0.086898278104317 edge_11_4_0_0 - 0.1535472862035 edge_11_5_0_0
   + 0.2554785247503702 edge_11_6_0_0 + 0.5783707935609227 edge_11_7_0_0
   + 0.26324525605987 edge_11_8_0_0 + 0.3006643286910752 edge_11_9_0_0
   + 0.3269966227236159 edge_11_10_0_0 + 0.4848022442621777 edge_11_12_0_0
   + 0.9414316802663153 edge_11_13_0_0 + 0.9828401746925132 edge_11_14_0_0
   + 0.6277687059720677 edge_11_15_0_0 + 0.2499037964163513 edge_11_16_0_0
   + 0.5327176760744 edge_11_18_0_0 + 0.299711960029131 edge_11_19_0_0
   + 0.0441988319270647 edge_11_20_0_0 + 0.6907468173217 edge_11_21_0_0
   - 1.030680959249718 edge_13_1_0_0 - 0.1721475179857291 edge_13_3_0_0
   + 0.20809147977 edge_13_5_0_0 - 0.0766807609313294 edge_13_6_0_0
   - 0.1123966021041622 edge_13_7_0_0 - 0.07688490778725 edge_13_8_0_0
   + 0.7273149416526301 edge_13_9_0_0 + 0.3318074798371691 edge_13_10_0_0
   + 0.546357400053285 edge_13_11_0_0 + 3.803528530028703 edge_13_12_0_0
   + 1.846847497223333 edge_13_14_0_0 + 1.649022664110933 edge_13_15_0_0
   + 1.139581650570751 edge_13_16_0_0 + 0.118471466000197 edge_13_17_0_0
   + 1.714455427242207 edge_13_18_0_0 + 0.9551966867626555 edge_13_19_0_0
   + 0.142911414714588 edge_13_20_0_0 + 1.9049152377 edge_13_21_0_0
   - 0.5245340667502714 edge_14_15_0_0 - 0.1165523517877971 edge_14_18_0_0
   - 0.2412977133727707 edge_15_14_0_0 + 0.1892464185548907 edge_15_16_0_0
   - 0.7894219434702184 edge_15_19_0_0 - 0.7265883954346161 edge_16_3_0_0
   - 1.024725451186678 edge_16_6_0_0 - 1.232729963127 edge_16_8_0_0
   - 0.9682766293418673 edge_16_9_0_0 - 0.0789851862608316 edge_16_11_0_0
   + 0.0737694228211419 edge_16_13_0_0 - 0.3505832758080027 edge_16_14_0_0
   - 0.044518786552617 edge_16_15_0_0 + 0.057205774271822 edge_16_17_0_0
   + 2.072820528981612 edge_16_18_0_0 + 0.4099497539933594 edge_16_19_0_0
   + 2.053638903255379 edge_16_20_0_0 + 1.037119489821 edge_16_21_0_0
   - 0.6980456586525347 edge_17_19_0_0 - 0.2826933310165941 edge_17_20_0_0
   - 2.221200204466639 edge_18_3_0_0 - 1.252449178768919 edge_18_6_0_0
   - 1.5810535018434 edge_18_8_0_0 - 1.31096684541422 edge_18_9_0_0
   - 0.4874889029463141 edge_18_11_0_0 + 0.8332818603492581 edge_18_12_0_0
   + 0.227955757681095 edge_18_13_0_0 + 0.4567099203269548 edge_18_14_0_0
   + 0.0744644673387014 edge_18_16_0_0 + 3.368881699750806 edge_18_17_0_0
   + 0.910693973798364 edge_18_19_0_0 + 0.9862104701511084 edge_18_20_0_0
   + 1.0177858168831 edge_18_21_0_0 - 0.942640725582115 edge_19_1_0_0
   + 0.6538668529785319 edge_19_3_0_0 + 0.6266384663112897 edge_19_5_0_0
   - 0.7375649732089626 edge_19_6_0_0 - 0.5586920118033282 edge_19_7_0_0
   + 0.0769141728284064 edge_19_8_0_0 - 0.5794084832788602 edge_19_9_0_0
   + 0.4860598264129182 edge_19_10_0_0 + 1.838270783626428 edge_19_11_0_0
   + 0.5380125868921467 edge_19_12_0_0 + 1.033806928972766 edge_19_13_0_0
   + 0.5512488342534375 edge_19_14_0_0 + 1.110836685346761 edge_19_17_0_0
   + 1.985278435142724 edge_19_18_0_0 + 2.211128011111316 edge_19_20_0_0
   + 2.968687027513269 edge_19_21_0_0 + 0.7662034226085377 edge_20_1_0_0
   + 1.12049430262779 edge_20_3_0_0 + 0.4039707268175949 edge_20_5_0_0
   + 0.1797406845947929 edge_20_6_0_0 - 0.9518528566718527 edge_20_7_0_0
   - 0.2271937747938332 edge_20_8_0_0 + 0.087694793637631 edge_20_9_0_0
   + 0.0503091698189887 edge_20_10_0_0 + 0.1586844118075105 edge_20_11_0_0
   + 0.7342138358157587 edge_20_12_0_0 + 1.053245415388304 edge_20_13_0_0
   + 0.8511544163927877 edge_20_14_0_0 - 0.1241826153333541 edge_20_15_0_0
   + 0.392769196691109 edge_20_16_0_0 + 1.135103681542422 edge_20_17_0_0
   + 1.96087787680681 edge_20_18_0_0 + 2.903884509667291 edge_20_19_0_0
   + 2.606832862858375 edge_20_21_0_0
Subject To
 one_parent_1: edge_0_1_0_0 + edge_3_1_0_0 + edge_5_1_0_0 + edge_6_1_0_0
   + edge_8_1_0_0 + edge_10_1_0_0 + edge_11_1_0_0 + edge_13_1_0_0
   + edge_19_1_0_0 + edge_20_1_0_0 = 1
 consume_one_flow_unit_1: flow_0_1_0_0 - flow_1_3_0_0 - flow_1_6_0_0
   + flow_3_1_0_0 + flow_5_1_0_0 + flow_6_1_0_0 + flow_8_1_0_0
   + flow_10_1_0_0 + flow_11_1_0_0 + flow_13_1_0_0 + flow_19_1_0_0
   + flow_20_1_0_0 = 1
 one_parent_2: edge_3_2_0_0 + edge_5_2_0_0 + edge_6_2_0_0 + edge_10_2_0_0
   = 1
 consume_one_flow_unit_2: flow_3_2_0_0 + flow_5_2_0_0 + flow_6_2_0_0
   + flow_10_2_0_0 = 1
 one_parent_3: edge_0_3_0_0 + edge_1_3_0_0 + edge_4_3_0_0 + edge_5_3_0_0
   + edge_6_3_0_0 + edge_8_3_0_0 + edge_10_3_0_0 + edge_11_3_0_0
   + edge_13_3_0_0 + edge_16_3_0_0 + edge_18_3_0_0 + edge_19_3_0_0
   + edge_20_3_0_0 = 1
 consume_one_flow_unit_3: flow_0_3_0_0 + flow_1_3_0_0 - flow_3_1_0_0
   - flow_3_2_0_0 - flow_3_4_0_0 - flow_3_5_0_0 - flow_3_6_0_0
   - flow_3_7_0_0 - flow_3_8_0_0 - flow_3_9_0_0 - flow_3_10_0_0
   - flow_3_11_0_0 - flow_3_13_0_0 - flow_3_14_0_0 - flow_3_15_0_0
   - flow_3_16_0_0 - flow_3_18_0_0 - flow_3_19_0_0 - flow_3_20_0_0
   - flow_3_21_0_0 + flow_4_3_0_0 + flow_5_3_0_0 + flow_6_3_0_0
   + flow_8_3_0_0 + flow_10_3_0_0 + flow_11_3_0_0 + flow_13_3_0_0
   + flow_16_3_0_0 + flow_18_3_0_0 + flow_19_3_0_0 + flow_20_3_0_0 = 1
 one_parent_4: edge_3_4_0_0 + edge_5_4_0_0 + edge_6_4_0_0 + edge_8_4_0_0
   + edge_10_4_0_0 + edge_11_4_0_0 = 1
 consume_one_flow_unit_4: flow_3_4_0_0 - flow_4_3_0_0 - flow_4_5_0_0
   - flow_4_6_0_0 - flow_4_7_0_0 - flow_4_8_0_0 - flow_4_10_0_0
   + flow_5_4_0_0 + flow_6_4_0_0 + flow_8_4_0_0 + flow_10_4_0_0
   + flow_11_4_0_0 = 1
 one_parent_5: edge_0_5_0_0 + edge_3_5_0_0 + edge_4_5_0_0 + edge_6_5_0_0
   + edge_7_5_0_0 + edge_8_5_0_0 + edge_10_5_0_0 + edge_11_5_0_0
   + edge_13_5_0_0 + edge_19_5_0_0 + edge_20_5_0_0 = 1
 consume_one_flow_unit_5: flow_0_5_0_0 + flow_3_5_0_0 + flow_4_5_0_0
   - flow_5_1_0_0 - flow_5_2_0_0 - flow_5_3_0_0 - flow_5_4_0_0
   - flow_5_6_0_0 - flow_5_7_0_0 - flow_5_8_0_0 - flow_5_9_0_0
   - flow_5_10_0_0 - flow_5_11_0_0 - flow_5_13_0_0 - flow_5_14_0_0
   - flow_5_15_0_0 - flow_5_16_0_0 - flow_5_18_0_0 - flow_5_19_0_0
   - flow_5_20_0_0 - flow_5_21_0_0 + flow_6_5_0_0 + flow_7_5_0_0
   + flow_8_5_0_0 + flow_10_5_0_0 + flow_11_5_0_0 + flow_13_5_0_0
   + flow_19_5_0_0 + flow_20_5_0_0 = 1
 one_parent_6: edge_0_6_0_0 + edge_1_6_0_0 + edge_3_6_0_0 + edge_4_6_0_0
   + edge_5_6_0_0 + edge_8_6_0_0 + edge_10_6_0_0 + edge_11_6_0_0
   + edge_13_6_0_0 + edge_16_6_0_0 + edge_18_6_0_0 + edge_19_6_0_0
   + edge_20_6_0_0 = 1
 consume_one_flow_unit_6: flow_0_6_0_0 + flow_1_6_0_0 + flow_3_6_0_0
   + flow_4_6_0_0 + flow_5_6_0_0 - flow_6_1_0_0 - flow_6_2_0_0
   - flow_6_3_0_0 - flow_6_4_0_0 - flow_6_5_0_0 - flow_6_7_0_0
   - flow_6_8_0_0 - flow_6_9_0_0 - flow_6_10_0_0 - flow_6_11_0_0
   - flow_6_12_0_0 - flow_6_13_0_0 - flow_6_14_0_0 - flow_6_15_0_0
   - flow_6_16_0_0 - flow_6_18_0_0 - flow_6_19_0_0 - flow_6_20_0_0
   - flow_6_21_0_0 + flow_8_6_0_0 + flow_10_6_0_0 + flow_11_6_0_0
   + flow_13_6_0_0 + flow_16_6_0_0 + flow_18_6_0_0 + flow_19_6_0_0
   + flow_20_6_0_0 = 1
 one_parent_7: edge_3_7_0_0 + edge_4_7_0_0 + edge_5_7_0_0 + edge_6_7_0_0
   + edge_8_7_0_0 + edge_10_7_0_0 + edge_11_7_0_0 + edge_13_7_0_0
   + edge_19_7_0_0 + edge_20_7_0_0 = 1
 consume_one_flow_unit_7: flow_3_7_0_0 + flow_4_7_0_0 + flow_5_7_0_0
   + flow_6_7_0_0 - flow_7_5_0_0 - flow_7_8_0_0 - flow_7_9_0_0
   - flow_7_10_0_0 - flow_7_11_0_0 - flow_7_13_0_0 - flow_7_15_0_0
   - flow_7_19_0_0 + flow_8_7_0_0 + flow_10_7_0_0 + flow_11_7_0_0
   + flow_13_7_0_0 + flow_19_7_0_0 + flow_20_7_0_0 = 1
 one_parent_8: edge_0_8_0_0 + edge_3_8_0_0 + edge_4_8_0_0 + edge_5_8_0_0
   + edge_6_8_0_0 + edge_7_8_0_0 + edge_10_8_0_0 + edge_11_8_0_0
   + edge_13_8_0_0 + edge_16_8_0_0 + edge_18_8_0_0 + edge_19_8_0_0
   + edge_20_8_0_0 = 1
 consume_one_flow_unit_8: flow_0_8_0_0 + flow_3_8_0_0 + flow_4_8_0_0
   + flow_5_8_0_0 + flow_6_8_0_0 + flow_7_8_0_0 - flow_8_1_0_0
   - flow_8_3_0_0 - flow_8_4_0_0 - flow_8_5_0_0 - flow_8_6_0_0
   - flow_8_7_0_0 - flow_8_9_0_0 - flow_8_10_0_0 - flow_8_11_0_0
   - flow_8_12_0_0 - flow_8_13_0_0 - flow_8_14_0_0 - flow_8_15_0_0
   - flow_8_16_0_0 - flow_8_18_0_0 - flow_8_19_0_0 - flow_8_20_0_0
   - flow_8_21_0_0 + flow_10_8_0_0 + flow_11_8_0_0 + flow_13_8_0_0
   + flow_16_8_0_0 + flow_18_8_0_0 + flow_19_8_0_0 + flow_20_8_0_0 = 1
 one_parent_9: edge_3_9_0_0 + edge_5_9_0_0 + edge_6_9_0_0 + edge_7_9_0_0
   + edge_8_9_0_0 + edge_10_9_0_0 + edge_11_9_0_0 + edge_13_9_0_0
   + edge_16_9_0_0 + edge_18_9_0_0 + edge_19_9_0_0 + edge_20_9_0_0 = 1
 consume_one_flow_unit_9: flow_3_9_0_0 + flow_5_9_0_0 + flow_6_9_0_0
   + flow_7_9_0_0 + flow_8_9_0_0 - flow_9_11_0_0 + flow_10_9_0_0
   + flow_11_9_0_0 + flow_13_9_0_0 + flow_16_9_0_0 + flow_18_9_0_0
   + flow_19_9_0_0 + flow_20_9_0_0 = 1
 one_parent_10: edge_3_10_0_0 + edge_4_10_0_0 + edge_5_10_0_0
   + edge_6_10_0_0 + edge_7_10_0_0 + edge_8_10_0_0 + edge_11_10_0_0
   + edge_13_10_0_0 + edge_19_10_0_0 + edge_20_10_0_0 = 1
 consume_one_flow_unit_10: flow_3_10_0_0 + flow_4_10_0_0 + flow_5_10_0_0
   + flow_6_10_0_0 + flow_7_10_0_0 + flow_8_10_0_0 - flow_10_1_0_0
   - flow_10_2_0_0 - flow_10_3_0_0 - flow_10_4_0_0 - flow_10_5_0_0
   - flow_10_6_0_0 - flow_10_7_0_0 - flow_10_8_0_0 - flow_10_9_0_0
   - flow_10_11_0_0 - flow_10_12_0_0 - flow_10_13_0_0 - flow_10_14_0_0
   - flow_10_18_0_0 - flow_10_19_0_0 - flow_10_20_0_0 - flow_10_21_0_0
   + flow_11_10_0_0 + flow_13_10_0_0 + flow_19_10_0_0 + flow_20_10_0_0 = 1
 one_parent_11: edge_0_11_0_0 + edge_3_11_0_0 + edge_5_11_0_0
   + edge_6_11_0_0 + edge_7_11_0_0 + edge_8_11_0_0 + edge_9_11_0_0
   + edge_10_11_0_0 + edge_13_11_0_0 + edge_16_11_0_0 + edge_18_11_0_0
   + edge_19_11_0_0 + edge_20_11_0_0 = 1
 consume_one_flow_unit_11: flow_0_11_0_0 + flow_3_11_0_0 + flow_5_11_0_0
   + flow_6_11_0_0 + flow_7_11_0_0 + flow_8_11_0_0 + flow_9_11_0_0
   + flow_10_11_0_0 - flow_11_1_0_0 - flow_11_3_0_0 - flow_11_4_0_0
   - flow_11_5_0_0 - flow_11_6_0_0 - flow_11_7_0_0 - flow_11_8_0_0
   - flow_11_9_0_0 - flow_11_10_0_0 - flow_11_12_0_0 - flow_11_13_0_0
   - flow_11_14_0_0 - flow_11_15_0_0 - flow_11_16_0_0 - flow_11_18_0_0
   - flow_11_19_0_0 - flow_11_20_0_0 - flow_11_21_0_0 + flow_13_11_0_0
   + flow_16_11_0_0 + flow_18_11_0_0 + flow_19_11_0_0 + flow_20_11_0_0 = 1
 one_parent_12: edge_6_12_0_0 + edge_8_12_0_0 + edge_10_12_0_0
   + edge_11_12_0_0 + edge_13_12_0_0 + edge_18_12_0_0 + edge_19_12_0_0
   + edge_20_12_0_0 = 1
 consume_one_flow_unit_12: flow_6_12_0_0 + flow_8_12_0_0 + flow_10_12_0_0
   + flow_11_12_0_0 + flow_13_12_0_0 + flow_18_12_0_0 + flow_19_12_0_0
   + flow_20_12_0_0 = 1
 one_parent_13: edge_0_13_0_0 + edge_3_13_0_0 + edge_5_13_0_0
   + edge_6_13_0_0 + edge_7_13_0_0 + edge_8_13_0_0 + edge_10_13_0_0
   + edge_11_13_0_0 + edge_16_13_0_0 + edge_18_13_0_0 + edge_19_13_0_0
   + edge_20_13_0_0 = 1
 consume_one_flow_unit_13: flow_0_13_0_0 + flow_3_13_0_0 + flow_5_13_0_0
   + flow_6_13_0_0 + flow_7_13_0_0 + flow_8_13_0_0 + flow_10_13_0_0
   + flow_11_13_0_0 - flow_13_1_0_0 - flow_13_3_0_0 - flow_13_5_0_0
   - flow_13_6_0_0 - flow_13_7_0_0 - flow_13_8_0_0 - flow_13_9_0_0
   - flow_13_10_0_0 - flow_13_11_0_0 - flow_13_12_0_0 - flow_13_14_0_0
   - flow_13_15_0_0 - flow_13_16_0_0 - flow_13_17_0_0 - flow_13_18_0_0
   - flow_13_19_0_0 - flow_13_20_0_0 - flow_13_21_0_0 + flow_16_13_0_0
   + flow_18_13_0_0 + flow_19_13_0_0 + flow_20_13_0_0 = 1
 one_parent_14: edge_3_14_0_0 + edge_5_14_0_0 + edge_6_14_0_0
   + edge_8_14_0_0 + edge_10_14_0_0 + edge_11_14_0_0 + edge_13_14_0_0
   + edge_15_14_0_0 + edge_16_14_0_0 + edge_18_14_0_0 + edge_19_14_0_0
   + edge_20_14_0_0 = 1
 consume_one_flow_unit_14: flow_3_14_0_0 + flow_5_14_0_0 + flow_6_14_0_0
   + flow_8_14_0_0 + flow_10_14_0_0 + flow_11_14_0_0 + flow_13_14_0_0
   - flow_14_15_0_0 - flow_14_18_0_0 + flow_15_14_0_0 + flow_16_14_0_0
   + flow_18_14_0_0 + flow_19_14_0_0 + flow_20_14_0_0 = 1
 one_parent_15: edge_3_15_0_0 + edge_5_15_0_0 + edge_6_15_0_0
   + edge_7_15_0_0 + edge_8_15_0_0 + edge_11_15_0_0 + edge_13_15_0_0
   + edge_14_15_0_0 + edge_16_15_0_0 + edge_20_15_0_0 = 1
 consume_one_flow_unit_15: flow_3_15_0_0 + flow_5_15_0_0 + flow_6_15_0_0
   + flow_7_15_0_0 + flow_8_15_0_0 + flow_11_15_0_0 + flow_13_15_0_0
   + flow_14_15_0_0 - flow_15_14_0_0 - flow_15_16_0_0 - flow_15_19_0_0
   + flow_16_15_0_0 + flow_20_15_0_0 = 1
 one_parent_16: edge_0_16_0_0 + edge_3_16_0_0 + edge_5_16_0_0
   + edge_6_16_0_0 + edge_8_16_0_0 + edge_11_16_0_0 + edge_13_16_0_0
   + edge_15_16_0_0 + edge_18_16_0_0 + edge_20_16_0_0 = 1
 consume_one_flow_unit_16: flow_0_16_0_0 + flow_3_16_0_0 + flow_5_16_0_0
   + flow_6_16_0_0 + flow_8_16_0_0 + flow_11_16_0_0 + flow_13_16_0_0
   + flow_15_16_0_0 - flow_16_3_0_0 - flow_16_6_0_0 - flow_16_8_0_0
   - flow_16_9_0_0 - flow_16_11_0_0 - flow_16_13_0_0 - flow_16_14_0_0
   - flow_16_15_0_0 - flow_16_17_0_0 - flow_16_18_0_0 - flow_16_19_0_0
   - flow_16_20_0_0 - flow_16_21_0_0 + flow_18_16_0_0 + flow_20_16_0_0 = 1
 one_parent_17: edge_13_17_0_0 + edge_16_17_0_0 + edge_18_17_0_0
   + edge_19_17_0_0 + edge_20_17_0_0 = 1
 consume_one_flow_unit_17: flow_13_17_0_0 + flow_16_17_0_0 - flow_17_19_0_0
   - flow_17_20_0_0 + flow_18_17_0_0 + flow_19_17_0_0 + flow_20_17_0_0 = 1
 one_parent_18: edge_0_18_0_0 + edge_3_18_0_0 + edge_5_18_0_0
   + edge_6_18_0_0 + edge_8_18_0_0 + edge_10_18_0_0 + edge_11_18_0_0
   + edge_13_18_0_0 + edge_14_18_0_0 + edge_16_18_0_0 + edge_19_18_0_0
   + edge_20_18_0_0 = 1
 consume_one_flow_unit_18: flow_0_18_0_0 + flow_3_18_0_0 + flow_5_18_0_0
   + flow_6_18_0_0 + flow_8_18_0_0 + flow_10_18_0_0 + flow_11_18_0_0
   + flow_13_18_0_0 + flow_14_18_0_0 + flow_16_18_0_0 - flow_18_3_0_0
   - flow_18_6_0_0 - flow_18_8_0_0 - flow_18_9_0_0 - flow_18_11_0_0
   - flow_18_12_0_0 - flow_18_13_0_0 - flow_18_14_0_0 - flow_18_16_0_0
   - flow_18_17_0_0 - flow_18_19_0_0 - flow_18_20_0_0 - flow_18_21_0_0
   + flow_19_18_0_0 + flow_20_18_0_0 = 1
 one_parent_19: edge_0_19_0_0 + edge_3_19_0_0 + edge_5_19_0_0
   + edge_6_19_0_0 + edge_7_19_0_0 + edge_8_19_0_0 + edge_10_19_0_0
   + edge_11_19_0_0 + edge_13_19_0_0 + edge_15_19_0_0 + edge_16_19_0_0
   + edge_17_19_0_0 + edge_18_19_0_0 + edge_20_19_0_0 = 1
 consume_one_flow_unit_19: flow_0_19_0_0 + flow_3_19_0_0 + flow_5_19_0_0
   + flow_6_19_0_0 + flow_7_19_0_0 + flow_8_19_0_0 + flow_10_19_0_0
   + flow_11_19_0_0 + flow_13_19_0_0 + flow_15_19_0_0 + flow_16_19_0_0
   + flow_17_19_0_0 + flow_18_19_0_0 - flow_19_1_0_0 - flow_19_3_0_0
   - flow_19_5_0_0 - flow_19_6_0_0 - flow_19_7_0_0 - flow_19_8_0_0
   - flow_19_9_0_0 - flow_19_10_0_0 - flow_19_11_0_0 - flow_19_12_0_0
   - flow_19_13_0_0 - flow_19_14_0_0 - flow_19_17_0_0 - flow_19_18_0_0
   - flow_19_20_0_0 - flow_19_21_0_0 + flow_20_19_0_0 = 1
 one_parent_20: edge_0_20_0_0 + edge_3_20_0_0 + edge_5_20_0_0
   + edge_6_20_0_0 + edge_8_20_0_0 + edge_10_20_0_0 + edge_11_20_0_0
   + edge_13_20_0_0 + edge_16_20_0_0 + edge_17_20_0_0 + edge_18_20_0_0
   + edge_19_20_0_0 = 1
 consume_one_flow_unit_20: flow_0_20_0_0 + flow_3_20_0_0 + flow_5_20_0_0
   + flow_6_20_0_0 + flow_8_20_0_0 + flow_10_20_0_0 + flow_11_20_0_0
   + flow_13_20_0_0 + flow_16_20_0_0 + flow_17_20_0_0 + flow_18_20_0_0
   + flow_19_20_0_0 - flow_20_1_0_0 - flow_20_3_0_0 - flow_20_5_0_0
   - flow_20_6_0_0 - flow_20_7_0_0 - flow_20_8_0_0 - flow_20_9_0_0
   - flow_20_10_0_0 - flow_20_11_0_0 - flow_20_12_0_0 - flow_20_13_0_0
   - flow_20_14_0_0 - flow_20_15_0_0 - flow_20_16_0_0 - flow_20_17_0_0
   - flow_20_18_0_0 - flow_20_19_0_0 - flow_20_21_0_0 = 1
 one_parent_21: edge_3_21_0_0 + edge_5_21_0_0 + edge_6_21_0_0
   + edge_8_21_0_0 + edge_10_21_0_0 + edge_11_21_0_0 + edge_13_21_0_0
   + edge_16_21_0_0 + edge_18_21_0_0 + edge_19_21_0_0 + edge_20_21_0_0 = 1
 consume_one_flow_unit_21: flow_3_21_0_0 + flow_5_21_0_0 + flow_6_21_0_0
   + flow_8_21_0_0 + flow_10_21_0_0 + flow_11_21_0_0 + flow_13_21_0_0
   + flow_16_21_0_0 + flow_18_21_0_0 + flow_19_21_0_0 + flow_20_21_0_0 = 1
 root_flow: flow_0_1_0_0 + flow_0_3_0_0 + flow_0_5_0_0 + flow_0_6_0_0
   + flow_0_8_0_0 + flow_0_11_0_0 + flow_0_13_0_0 + flow_0_16_0_0
   + flow_0_18_0_0 + flow_0_19_0_0 + flow_0_20_0_0 = 21
 inactive_no_flow_0_1_0_0: flow_0_1_0_0 - 1000 edge_0_1_0_0 <= 0
 inactive_no_flow_0_3_0_0: flow_0_3_0_0 - 1000 edge_0_3_0_0 <= 0
 inactive_no_flow_0_5_0_0: flow_0_5_0_0 - 1000 edge_0_5_0_0 <= 0
 inactive_no_flow_0_6_0_0: flow_0_6_0_0 - 1000 edge_0_6_0_0 <= 0
 inactive_no_flow_0_8_0_0: flow_0_8_0_0 - 1000 edge_0_8_0_0 <= 0
 inactive_no_flow_0_11_0_0: flow_0_11_0_0 - 1000 edge_0_11_0_0 <= 0
 inactive_no_flow_0_13_0_0: flow_0_13_0_0 - 1000 edge_0_13_0_0 <= 0
 inactive_no_flow_0_16_0_0: flow_0_16_0_0 - 1000 edge_0_16_0_0 <= 0
 inactive_no_flow_0_18_0_0: flow_0_18_0_0 - 1000 edge_0_18_0_0 <= 0
 inactive_no_flow_0_19_0_0: flow_0_19_0_0 - 1000 edge_0_19_0_0 <= 0
 inactive_no_flow_0_20_0_0: flow_0_20_0_0 - 1000 edge_0_20_0_0 <= 0
 inactive_no_flow_1_3_0_0: flow_1_3_0_0 - 1000 edge_1_3_0_0 <= 0
 inactive_no_flow_1_6_0_0: flow_1_6_0_0 - 1000 edge_1_6_0_0 <= 0
 inactive_no_flow_3_1_0_0: flow_3_1_0_0 - 1000 edge_3_1_0_0 <= 0
 inactive_no_flow_3_2_0_0: flow_3_2_0_0 - 1000 edge_3_2_0_0 <= 0
 inactive_no_flow_3_4_0_0: flow_3_4_0_0 - 1000 edge_3_4_0_0 <= 0
 inactive_no_flow_3_5_0_0: flow_3_5_0_0 - 1000 edge_3_5_0_0 <= 0
 inactive_no_flow_3_6_0_0: flow_3_6_0_0 - 1000 edge_3_6_0_0 <= 0
 inactive_no_flow_3_7_0_0: flow_3_7_0_0 - 1000 edge_3_7_0_0 <= 0
 inactive_no_flow_3_8_0_0: flow_3_8_0_0 - 1000 edge_3_8_0_0 <= 0
 inactive_no_flow_3_9_0_0: flow_3_9_0_0 - 1000 edge_3_9_0_0 <= 0
 inactive_no_flow_3_10_0_0: flow_3_10_0_0 - 1000 edge_3_10_0_0 <= 0
 inactive_no_flow_3_11_0_0: flow_3_11_0_0 - 1000 edge_3_11_0_0 <= 0
 inactive_no_flow_3_13_0_0: flow_3_13_0_0 - 1000 edge_3_13_0_0 <= 0
 inactive_no_flow_3_14_0_0: flow_3_14_0_0 - 1000 edge_3_14_0_0 <= 0
 inactive_no_flow_3_15_0_0: flow_3_15_0_0 - 1000 edge_3_15_0_0 <= 0
 inactive_no_flow_3_16_0_0: flow_3_16_0_0 - 1000 edge_3_16_0_0 <= 0
 inactive_no_flow_3_18_0_0: flow_3_18_0_0 - 1000 edge_3_18_0_0 <= 0
 inactive_no_flow_3_19_0_0: flow_3_19_0_0 - 1000 edge_3_19_0_0 <= 0
 inactive_no_flow_3_20_0_0: flow_3_20_0_0 - 1000 edge_3_20_0_0 <= 0
 inactive_no_flow_3_21_0_0: flow_3_21_0_0 - 1000 edge_3_21_0_0 <= 0
 inactive_no_flow_4_3_0_0: flow_4_3_0_0 - 1000 edge_4_3_0_0 <= 0
 inactive_no_flow_4_5_0_0: flow_4_5_0_0 - 1000 edge_4_5_0_0 <= 0
 inactive_no_flow_4_6_0_0: flow_4_6_0_0 - 1000 edge_4_6_0_0 <= 0
 inactive_no_flow_4_7_0_0: flow_4_7_0_0 - 1000 edge_4_7_0_0 <= 0
 inactive_no_flow_4_8_0_0: flow_4_8_0_0 - 1000 edge_4_8_0_0 <= 0
 inactive_no_flow_4_10_0_0: flow_4_10_0_0 - 1000 edge_4_10_0_0 <= 0
 inactive_no_flow_5_1_0_0: flow_5_1_0_0 - 1000 edge_5_1_0_0 <= 0
 inactive_no_flow_5_2_0_0: flow_5_2_0_0 - 1000 edge_5_2_0_0 <= 0
 inactive_no_flow_5_3_0_0: flow_5_3_0_0 - 1000 edge_5_3_0_0 <= 0
 inactive_no_flow_5_4_0_0: flow_5_4_0_0 - 1000 edge_5_4_0_0 <= 0
 inactive_no_flow_5_6_0_0: flow_5_6_0_0 - 1000 edge_5_6_0_0 <= 0
 inactive_no_flow_5_7_0_0: flow_5_7_0_0 - 1000 edge_5_7_0_0 <= 0
 inactive_no_flow_5_8_0_0: flow_5_8_0_0 - 1000 edge_5_8_0_0 <= 0
 inactive_no_flow_5_9_0_0: flow_5_9_0_0 - 1000 edge_5_9_0_0 <= 0
 inactive_no_flow_5_10_0_0: flow_5_10_0_0 - 1000 edge_5_10_0_0 <= 0
 inactive_no_flow_5_11_0_0: flow_5_11_0_0 - 1000 edge_5_11_0_0 <= 0
 inactive_no_flow_5_13_0_0: flow_5_13_0_0 - 1000 edge_5_13_0_0 <= 0
 inactive_no_flow_5_14_0_0: flow_5_14_0_0 - 1000 edge_5_14_0_0 <= 0
 inactive_no_flow_5_15_0_0: flow_5_15_0_0 - 1000 edge_5_15_0_0 <= 0
 inactive_no_flow_5_16_0_0: flow_5_16_0_0 - 1000 edge_5_16_0_0 <= 0
 inactive_no_flow_5_18_0_0: flow_5_18_0_0 - 1000 edge_5_18_0_0 <= 0
 inactive_no_flow_5_19_0_0: flow_5_19_0_0 - 1000 edge_5_19_0_0 <= 0
 inactive_no_flow_5_20_0_0: flow_5_20_0_0 - 1000 edge_5_20_0_0 <= 0
 inactive_no_flow_5_21_0_0: flow_5_21_0_0 - 1000 edge_5_21_0_0 <= 0
 inactive_no_flow_6_1_0_0: flow_6_1_0_0 - 1000 edge_6_1_0_0 <= 0
 inactive_no_flow_6_2_0_0: flow_6_2_0_0 - 1000 edge_6_2_0_0 <= 0
 inactive_no_flow_6_3_0_0: flow_6_3_0_0 - 1000 edge_6_3_0_0 <= 0
 inactive_no_flow_6_4_0_0: flow_6_4_0_0 - 1000 edge_6_4_0_0 <= 0
 inactive_no_flow_6_5_0_0: flow_6_5_0_0 - 1000 edge_6_5_0_0 <= 0
 inactive_no_flow_6_7_0_0: flow_6_7_0_0 - 1000 edge_6_7_0_0 <= 0
 inactive_no_flow_6_8_0_0: flow_6_8_0_0 - 1000 edge_6_8_0_0 <= 0
 inactive_no_flow_6_9_0_0: flow_6_9_0_0 - 1000 edge_6_9_0_0 <= 0
 inactive_no_flow_6_10_0_0: flow_6_10_0_0 - 1000 edge_6_10_0_0 <= 0
 inactive_no_flow_6_11_0_0: flow_6_11_0_0 - 1000 edge_6_11_0_0 <= 0
 inactive_no_flow_6_12_0_0: flow_6_12_0_0 - 1000 edge_6_12_0_0 <= 0
 inactive_no_flow_6_13_0_0: flow_6_13_0_0 - 1000 edge_6_13_0_0 <= 0
 inactive_no_flow_6_14_0_0: flow_6_14_0_0 - 1000 edge_6_14_0_0 <= 0
 inactive_no_flow_6_15_0_0: flow_6_15_0_0 - 1000 edge_6_15_0_0 <= 0
 inactive_no_flow_6_16_0_0: flow_6_16_0_0 - 1000 edge_6_16_0_0 <= 0
 inactive_no_flow_6_18_0_0: flow_6_18_0_0 - 1000 edge_6_18_0_0 <= 0
 inactive_no_flow_6_19_0_0: flow_6_19_0_0 - 1000 edge_6_19_0_0 <= 0
 inactive_no_flow_6_20_0_0: flow_6_20_0_0 - 1000 edge_6_20_0_0 <= 0
 inactive_no_flow_6_21_0_0: flow_6_21_0_0 - 1000 edge_6_21_0_0 <= 0
 inactive_no_flow_7_5_0_0: flow_7_5_0_0 - 1000 edge_7_5_0_0 <= 0
 inactive_no_flow_7_8_0_0: flow_7_8_0_0 - 1000 edge_7_8_0_0 <= 0
 inactive_no_flow_7_9_0_0: flow_7_9_0_0 - 1000 edge_7_9_0_0 <= 0
 inactive_no_flow_7_10_0_0: flow_7_10_0_0 - 1000 edge_7_10_0_0 <= 0
 inactive_no_flow_7_11_0_0: flow_7_11_0_0 - 1000 edge_7_11_0_0 <= 0
 inactive_no_flow_7_13_0_0: flow_7_13_0_0 - 1000 edge_7_13_0_0 <= 0
 inactive_no_flow_7_15_0_0: flow_7_15_0_0 - 1000 edge_7_15_0_0 <= 0
 inactive_no_flow_7_19_0_0: flow_7_19_0_0 - 1000 edge_7_19_0_0 <= 0
 inactive_no_flow_8_1_0_0: flow_8_1_0_0 - 1000 edge_8_1_0_0 <= 0
 inactive_no_flow_8_3_0_0: flow_8_3_0_0 - 1000 edge_8_3_0_0 <= 0
 inactive_no_flow_8_4_0_0: flow_8_4_0_0 - 1000 edge_8_4_0_0 <= 0
 inactive_no_flow_8_5_0_0: flow_8_5_0_0 - 1000 edge_8_5_0_0 <= 0
 inactive_no_flow_8_6_0_0: flow_8_6_0_0 - 1000 edge_8_6_0_0 <= 0
 inactive_no_flow_8_7_0_0: flow_8_7_0_0 - 1000 edge_8_7_0_0 <= 0
 inactive_no_flow_8_9_0_0: flow_8_9_0_0 - 1000 edge_8_9_0_0 <= 0
 inactive_no_flow_8_10_0_0: flow_8_10_0_0 - 1000 edge_8_10_0_0 <= 0
 inactive_no_flow_8_11_0_0: flow_8_11_0_0 - 1000 edge_8_11_0_0 <= 0
 inactive_no_flow_8_12_0_0: flow_8_12_0_0 - 1000 edge_8_12_0_0 <= 0
 inactive_no_flow_8_13_0_0: flow_8_13_0_0 - 1000 edge_8_13_0_0 <= 0
 inactive_no_flow_8_14_0_0: flow_8_14_0_0 - 1000 edge_8_14_0_0 <= 0
 inactive_no_flow_8_15_0_0: flow_8_15_0_0 - 1000 edge_8_15_0_0 <= 0
 inactive_no_flow_8_16_0_0: flow_8_16_0_0 - 1000 edge_8_16_0_0 <= 0
 inactive_no_flow_8_18_0_0: flow_8_18_0_0 - 1000 edge_8_18_0_0 <= 0
 inactive_no_flow_8_19_0_0: flow_8_19_0_0 - 1000 edge_8_19_0_0 <= 0
 inactive_no_flow_8_20_0_0: flow_8_20_0_0 - 1000 edge_8_20_0_0 <= 0
 inactive_no_flow_8_21_0_0: flow_8_21_0_0 - 1000 edge_8_21_0_0 <= 0
 inactive_no_flow_9_11_0_0: flow_9_11_0_0 - 1000 edge_9_11_0_0 <= 0
 inactive_no_flow_10_1_0_0: flow_10_1_0_0 - 1000 edge_10_1_0_0 <= 0
 inactive_no_flow_10_2_0_0: flow_10_2_0_0 - 1000 edge_10_2_0_0 <= 0
 inactive_no_flow_10_3_0_0: flow_10_3_0_0 - 1000 edge_10_3_0_0 <= 0
 inactive_no_flow_10_4_0_0: flow_10_4_0_0 - 1000 edge_10_4_0_0 <= 0
 inactive_no_flow_10_5_0_0: flow_10_5_0_0 - 1000 edge_10_5_0_0 <= 0
 inactive_no_flow_10_6_0_0: flow_10_6_0_0 - 1000 edge_10_6_0_0 <= 0
 inactive_no_flow_10_7_0_0: flow_10_7_0_0 - 1000 edge_10_7_0_0 <= 0
 inactive_no_flow_10_8_0_0: flow_10_8_0_0 - 1000 edge_10_8_0_0 <= 0
 inactive_no_flow_10_9_0_0: flow_10_9_0_0 - 1000 edge_10_9_0_0 <= 0
 inactive_no_flow_10_11_0_0: flow_10_11_0_0 - 1000 edge_10_11_0_0 <= 0
 inactive_no_flow_10_12_0_0: flow_10_12_0_0 - 1000 edge_10_12_0_0 <= 0
 inactive_no_flow_10_13_0_0: flow_10_13_0_0 - 1000 edge_10_13_0_0 <= 0
 inactive_no_flow_10_14_0_0: flow_10_14_0_0 - 1000 edge_10_14_0_0 <= 0
 inactive_no_flow_10_18_0_0: flow_10_18_0_0 - 1000 edge_10_18_0_0 <= 0
 inactive_no_flow_10_19_0_0: flow_10_19_0_0 - 1000 edge_10_19_0_0 <= 0
 inactive_no_flow_10_20_0_0: flow_10_20_0_0 - 1000 edge_10_20_0_0 <= 0
 inactive_no_flow_10_21_0_0: flow_10_21_0_0 - 1000 edge_10_21_0_0 <= 0
 inactive_no_flow_11_1_0_0: flow_11_1_0_0 - 1000 edge_11_1_0_0 <= 0
 inactive_no_flow_11_3_0_0: flow_11_3_0_0 - 1000 edge_11_3_0_0 <= 0
 inactive_no_flow_11_4_0_0: flow_11_4_0_0 - 1000 edge_11_4_0_0 <= 0
 inactive_no_flow_11_5_0_0: flow_11_5_0_0 - 1000 edge_11_5_0_0 <= 0
 inactive_no_flow_11_6_0_0: flow_11_6_0_0 - 1000 edge_11_6_0_0 <= 0
 inactive_no_flow_11_7_0_0: flow_11_7_0_0 - 1000 edge_11_7_0_0 <= 0
 inactive_no_flow_11_8_0_0: flow_11_8_0_0 - 1000 edge_11_8_0_0 <= 0
 inactive_no_flow_11_9_0_0: flow_11_9_0_0 - 1000 edge_11_9_0_0 <= 0
 inactive_no_flow_11_10_0_0: flow_11_10_0_0 - 1000 edge_11_10_0_0 <= 0
 inactive_no_flow_11_12_0_0: flow_11_12_0_0 - 1000 edge_11_12_0_0 <= 0
 inactive_no_flow_11_13_0_0: flow_11_13_0_0 - 1000 edge_11_13_0_0 <= 0
 inactive_no_flow_11_14_0_0: flow_11_14_0_0 - 1000 edge_11_14_0_0 <= 0
 inactive_no_flow_11_15_0_0: flow_11_15_0_0 - 1000 edge_11_15_0_0 <= 0
 inactive_no_flow_11_16_0_0: flow_11_16_0_0 - 1000 edge_11_16_0_0 <= 0
 inactive_no_flow_11_18_0_0: flow_11_18_0_0 - 1000 edge_11_18_0_0 <= 0
 inactive_no_flow_11_19_0_0: flow_11_19_0_0 - 1000 edge_11_19_0_0 <= 0
 inactive_no_flow_11_20_0_0: flow_11_20_0_0 - 1000 edge_11_20_0_0 <= 0
 inactive_no_flow_11_21_0_0: flow_11_21_0_0 - 1000 edge_11_21_0_0 <= 0
 inactive_no_flow_13_1_0_0: flow_13_1_0_0 - 1000 edge_13_1_0_0 <= 0
 inactive_no_flow_13_3_0_0: flow_13_3_0_0 - 1000 edge_13_3_0_0 <= 0
 inactive_no_flow_13_5_0_0: flow_13_5_0_0 - 1000 edge_13_5_0_0 <= 0
 inactive_no_flow_13_6_0_0: flow_13_6_0_0 - 1000 edge_13_6_0_0 <= 0
 inactive_no_flow_13_7_0_0: flow_13_7_0_0 - 1000 edge_13_7_0_0 <= 0
 inactive_no_flow_13_8_0_0: flow_13_8_0_0 - 1000 edge_13_8_0_0 <= 0
 inactive_no_flow_13_9_0_0: flow_13_9_0_0 - 1000 edge_13_9_0_0 <= 0
 inactive_no_flow_13_10_0_0: flow_13_10_0_0 - 1000 edge_13_10_0_0 <= 0
 inactive_no_flow_13_11_0_0: flow_13_11_0_0 - 1000 edge_13_11_0_0 <= 0
 inactive_no_flow_13_12_0_0: flow_13_12_0_0 - 1000 edge_13_12_0_0 <= 0
 inactive_no_flow_13_14_0_0: flow_13_14_0_0 - 1000 edge_13_14_0_0 <= 0
 inactive_no_flow_13_15_0_0: flow_13_15_0_0 - 1000 edge_13_15_0_0 <= 0
 inactive_no_flow_13_16_0_0: flow_13_16_0_0 - 1000 edge_13_16_0_0 <= 0
 inactive_no_flow_13_17_0_0: flow_13_17_0_0 - 1000 edge_13_17_0_0 <= 0
 inactive_no_flow_13_18_0_0: flow_13_18_0_0 - 1000 edge_13_18_0_0 <= 0
 inactive_no_flow_13_19_0_0: flow_13_19_0_0 - 1000 edge_13_19_0_0 <= 0
 inactive_no_flow_13_20_0_0: flow_13_20_0_0 - 1000 edge_13_20_0_0 <= 0
 inactive_no_flow_13_21_0_0: flow_13_21_0_0 - 1000 edge_13_21_0_0 <= 0
 inactive_no_flow_14_15_0_0: flow_14_15_0_0 - 1000 edge_14_15_0_0 <= 0
 inactive_no_flow_14_18_0_0: flow_14_18_0_0 - 1000 edge_14_18_0_0 <= 0
 inactive_no_flow_15_14_0_0: flow_15_14_0_0 - 1000 edge_15_14_0_0 <= 0
 inactive_no_flow_15_16_0_0: flow_15_16_0_0 - 1000 edge_15_16_0_0 <= 0
 inactive_no_flow_15_19_0_0: flow_15_19_0_0 - 1000 edge_15_19_0_0 <= 0
 inactive_no_flow_16_3_0_0: flow_16_3_0_0 - 1000 edge_16_3_0_0 <= 0
 inactive_no_flow_16_6_0_0: flow_16_6_0_0 - 1000 edge_16_6_0_0 <= 0
 inactive_no_flow_16_8_0_0: flow_16_8_0_0 - 1000 edge_16_8_0_0 <= 0
 inactive_no_flow_16_9_0_0: flow_16_9_0_0 - 1000 edge_16_9_0_0 <= 0
 inactive_no_flow_16_11_0_0: flow_16_11_0_0 - 1000 edge_16_11_0_0 <= 0
 inactive_no_flow_16_13_0_0: flow_16_13_0_0 - 1000 edge_16_13_0_0 <= 0
 inactive_no_flow_16_14_0_0: flow_16_14_0_0 - 1000 edge_16_14_0_0 <= 0
 inactive_no_flow_16_15_0_0: flow_16_15_0_0 - 1000 edge_16_15_0_0 <= 0
 inactive_no_flow_16_17_0_0: flow_16_17_0_0 - 1000 edge_16_17_0_0 <= 0
 inactive_no_flow_16_18_0_0: flow_16_18_0_0 - 1000 edge_16_18_0_0 <= 0
 inactive_no_flow_16_19_0_0: flow_16_19_0_0 - 1000 edge_16_19_0_0 <= 0
 inactive_no_flow_16_20_0_0: flow_16_20_0_0 - 1000 edge_16_20_0_0 <= 0
 inactive_no_flow_16_21_0_0: flow_16_21_0_0 - 1000 edge_16_21_0_0 <= 0
 inactive_no_flow_17_19_0_0: flow_17_19_0_0 - 1000 edge_17_19_0_0 <= 0
 inactive_no_flow_17_20_0_0: flow_17_20_0_0 - 1000 edge_17_20_0_0 <= 0
 inactive_no_flow_18_3_0_0: flow_18_3_0_0 - 1000 edge_18_3_0_0 <= 0
 inactive_no_flow_18_6_0_0: flow_18_6_0_0 - 1000 edge_18_6_0_0 <= 0
 inactive_no_flow_18_8_0_0: flow_18_8_0_0 - 1000 edge_18_8_0_0 <= 0
 inactive_no_flow_18_9_0_0: flow_18_9_0_0 - 1000 edge_18_9_0_0 <= 0
 inactive_no_flow_18_11_0_0: flow_18_11_0_0 - 1000 edge_18_11_0_0 <= 0
 inactive_no_flow_18_12_0_0: flow_18_12_0_0 - 1000 edge_18_12_0_0 <= 0
 inactive_no_flow_18_13_0_0: flow_18_13_0_0 - 1000 edge_18_13_0_0 <= 0
 inactive_no_flow_18_14_0_0: flow_18_14_0_0 - 1000 edge_18_14_0_0 <= 0
 inactive_no_flow_18_16_0_0: flow_18_16_0_0 - 1000 edge_18_16_0_0 <= 0
 inactive_no_flow_18_17_0_0: flow_18_17_0_0 - 1000 edge_18_17_0_0 <= 0
 inactive_no_flow_18_19_0_0: flow_18_19_0_0 - 1000 edge_18_19_0_0 <= 0
 inactive_no_flow_18_20_0_0: flow_18_20_0_0 - 1000 edge_18_20_0_0 <= 0
 inactive_no_flow_18_21_0_0: flow_18_21_0_0 - 1000 edge_18_21_0_0 <= 0
 inactive_no_flow_19_1_0_0: flow_19_1_0_0 - 1000 edge_19_1_0_0 <= 0
 inactive_no_flow_19_3_0_0: flow_19_3_0_0 - 1000 edge_19_3_0_0 <= 0
 inactive_no_flow_19_5_0_0: flow_19_5_0_0 - 1000 edge_19_5_0_0 <= 0
 inactive_no_flow_19_6_0_0: flow_19_6_0_0 - 1000 edge_19_6_0_0 <= 0
 inactive_no_flow_19_7_0_0: flow_19_7_0_0 - 1000 edge_19_7_0_0 <= 0
 inactive_no_flow_19_8_0_0: flow_19_8_0_0 - 1000 edge_19_8_0_0 <= 0
 inactive_no_flow_19_9_0_0: flow_19_9_0_0 - 1000 edge_19_9_0_0 <= 0
 inactive_no_flow_19_10_0_0: flow_19_10_0_0 - 1000 edge_19_10_0_0 <= 0
 inactive_no_flow_19_11_0_0: flow_19_11_0_0 - 1000 edge_19_11_0_0 <= 0
 inactive_no_flow_19_12_0_0: flow_19_12_0_0 - 1000 edge_19_12_0_0 <= 0
 inactive_no_flow_19_13_0_0: flow_19_13_0_0 - 1000 edge_19_13_0_0 <= 0
 inactive_no_flow_19_14_0_0: flow_19_14_0_0 - 1000 edge_19_14_0_0 <= 0
 inactive_no_flow_19_17_0_0: flow_19_17_0_0 - 1000 edge_19_17_0_0 <= 0
 inactive_no_flow_19_18_0_0: flow_19_18_0_0 - 1000 edge_19_18_0_0 <= 0
 inactive_no_flow_19_20_0_0: flow_19_20_0_0 - 1000 edge_19_20_0_0 <= 0
 inactive_no_flow_19_21_0_0: flow_19_21_0_0 - 1000 edge_19_21_0_0 <= 0
 inactive_no_flow_20_1_0_0: flow_20_1_0_0 - 1000 edge_20_1_0_0 <= 0
 inactive_no_flow_20_3_0_0: flow_20_3_0_0 - 1000 edge_20_3_0_0 <= 0
 inactive_no_flow_20_5_0_0: flow_20_5_0_0 - 1000 edge_20_5_0_0 <= 0
 inactive_no_flow_20_6_0_0: flow_20_6_0_0 - 1000 edge_20_6_0_0 <= 0
 inactive_no_flow_20_7_0_0: flow_20_7_0_0 - 1000 edge_20_7_0_0 <= 0
 inactive_no_flow_20_8_0_0: flow_20_8_0_0 - 1000 edge_20_8_0_0 <= 0
 inactive_no_flow_20_9_0_0: flow_20_9_0_0 - 1000 edge_20_9_0_0 <= 0
 inactive_no_flow_20_10_0_0: flow_20_10_0_0 - 1000 edge_20_10_0_0 <= 0
 inactive_no_flow_20_11_0_0: flow_20_11_0_0 - 1000 edge_20_11_0_0 <= 0
 inactive_no_flow_20_12_0_0: flow_20_12_0_0 - 1000 edge_20_12_0_0 <= 0
 inactive_no_flow_20_13_0_0: flow_20_13_0_0 - 1000 edge_20_13_0_0 <= 0
 inactive_no_flow_20_14_0_0: flow_20_14_0_0 - 1000 edge_20_14_0_0 <= 0
 inactive_no_flow_20_15_0_0: flow_20_15_0_0 - 1000 edge_20_15_0_0 <= 0
 inactive_no_flow_20_16_0_0: flow_20_16_0_0 - 1000 edge_20_16_0_0 <= 0
 inactive_no_flow_20_17_0_0: flow_20_17_0_0 - 1000 edge_20_17_0_0 <= 0
 inactive_no_flow_20_18_0_0: flow_20_18_0_0 - 1000 edge_20_18_0_0 <= 0
 inactive_no_flow_20_19_0_0: flow_20_19_0_0 - 1000 edge_20_19_0_0 <= 0
 inactive_no_flow_20_21_0_0: flow_20_21_0_0 - 1000 edge_20_21_0_0 <= 0
Bounds
Binaries
 edge_0_1_0_0 edge_0_3_0_0 edge_0_5_0_0 edge_0_6_0_0 edge_0_8_0_0
 edge_0_11_0_0 edge_0_13_0_0 edge_0_16_0_0 edge_0_18_0_0 edge_0_19_0_0
 edge_0_20_0_0 edge_1_3_0_0 edge_1_6_0_0 edge_3_1_0_0 edge_3_2_0_0
 edge_3_4_0_0 edge_3_5_0_0 edge_3_6_0_0 edge_3_7_0_0 edge_3_8_0_0
 edge_3_9_0_0 edge_3_10_0_0 edge_3_11_0_0 edge_3_13_0_0 edge_3_14_0_0
 edge_3_15_0_0 edge_3_16_0_0 edge_3_18_0_0 edge_3_19_0_0 edge_3_20_0_0
 edge_3_21_0_0 edge_4_3_0_0 edge_4_5_0_0 edge_4_6_0_0 edge_4_7_0_0
 edge_4_8_0_0 edge_4_10_0_0 edge_5_1_0_0 edge_5_2_0_0 edge_5_3_0_0
 edge_5_4_0_0 edge_5_6_0_0 edge_5_7_0_0 edge_5_8_0_0 edge_5_9_0_0
 edge_5_10_0_0 edge_5_11_0_0 edge_5_13_0_0 edge_5_14_0_0 edge_5_15_0_0
 edge_5_16_0_0 edge_5_18_0_0 edge_5_19_0_0 edge_5_20_0_0 edge_5_21_0_0
 edge_6_1_0_0 edge_6_2_0_0 edge_6_3_0_0 edge_6_4_0_0 edge_6_5_0_0
 edge_6_7_0_0 edge_6_8_0_0 edge_6_9_0_0 edge_6_10_0_0 edge_6_11_0_0
 edge_6_12_0_0 edge_6_13_0_0 edge_6_14_0_0 edge_6_15_0_0 edge_6_16_0_0
 edge_6_18_0_0 edge_6_19_0_0 edge_6_20_0_0 edge_6_21_0_0 edge_7_5_0_0
 edge_7_8_0_0 edge_7_9_0_0 edge_7_10_0_0 edge_7_11_0_0 edge_7_13_0_0
 edge_7_15_0_0 edge_7_19_0_0 edge_8_1_0_0 edge_8_3_0_0 edge_8_4_0_0
 edge_8_5_0_0 edge_8_6_0_0 edge_8_7_0_0 edge_8_9_0_0 edge_8_10_0_0
 edge_8_11_0_0 edge_8_12_0_0 edge_8_13_0_0 edge_8_14_0_0 edge_8_15_0_0
 edge_8_16_0_0 edge_8_18_0_0 edge_8_19_0_0 edge_8_20_0_0 edge_8_21_0_0
 edge_9_11_0_0 edge_10_1_0_0 edge_10_2_0_0 edge_10_3_0_0 edge_10_4_0_0
 edge_10_5_0_0 edge_10_6_0_0 edge_10_7_0_0 edge_10_8_0_0 edge_10_9_0_0
 edge_10_11_0_0 edge_10_12_0_0 edge_10_13_0_0 edge_10_14_0_0 edge_10_18_0_0
 edge_10_19_0_0 edge_10_20_0_0 edge_10_21_0_0 edge_11_1_0_0 edge_11_3_0_0
 edge_11_4_0_0 edge_11_5_0_0 edge_11_6_0_0 edge_11_7_0_0 edge_11_8_0_0
 edge_11_9_0_0 edge_11_10_0_0 edge_11_12_0_0 edge_11_13_0_0 edge_11_14_0_0
 edge_11_15_0_0 edge_11_16_0_0 edge_11_18_0_0 edge_11_19_0_0 edge_11_20_0_0
 edge_11_21_0_0 edge_13_1_0_0 edge_13_3_0_0 edge_13_5_0_0 edge_13_6_0_0
 edge_13_7_0_0 edge_13_8_0_0 edge_13_9_0_0 edge_13_10_0_0 edge_13_11_0_0
 edge_13_12_0_0 edge_13_14_0_0 edge_13_15_0_0 edge_13_16_0_0 edge_13_17_0_0
 edge_13_18_0_0 edge_13_19_0_0 edge_13_20_0_0 edge_13_21_0_0 edge_14_15_0_0
 edge_14_18_0_0 edge_15_14_0_0 edge_15_16_0_0 edge_15_19_0_0 edge_16_3_0_0
 edge_16_6_0_0 edge_16_8_0_0 edge_16_9_0_0 edge_16_11_0_0 edge_16_13_0_0
 edge_16_14_0_0 edge_16_15_0_0 edge_16_17_0_0 edge_16_18_0_0 edge_16_19_0_0
 edge_16_20_0_0 edge_16_21_0_0 edge_17_19_0_0 edge_17_20_0_0 edge_18_3_0_0
 edge_18_6_0_0 edge_18_8_0_0 edge_18_9_0_0 edge_18_11_0_0 edge_18_12_0_0
 edge_18_13_0_0 edge_18_14_0_0 edge_18_16_0_0 edge_18_17_0_0 edge_18_19_0_0
 edge_18_20_0_0 edge_18_21_0_0 edge_19_1_0_0 edge_19_3_0_0 edge_19_5_0_0
 edge_19_6_0_0 edge_19_7_0_0 edge_19_8_0_0 edge_19_9_0_0 edge_19_10_0_0
 edge_19_11_0_0 edge_19_12_0_0 edge_19_13_0_0 edge_19_14_0_0 edge_19_17_0_0
 edge_19_18_0_0 edge_19_20_0_0 edge_19_21_0_0 edge_20_1_0_0 edge_20_3_0_0
 edge_20_5_0_0 edge_20_6_0_0 edge_20_7_0_0 edge_20_8_0_0 edge_20_9_0_0
 edge_20_10_0_0 edge_20_11_0_0 edge_20_12_0_0 edge_20_13_0_0 edge_20_14_0_0
 edge_20_15_0_0 edge_20_16_0_0 edge_20_17_0_0 edge_20_18_0_0 edge_20_19_0_0
 edge_20_21_0_0
End
